
Gurobi 6.0.4 (win64) logging started 06/18/15 17:41:31

Read LP format model from file E:\Eigene Dateien\Downloads\Michi shit\VRPTWMS2\instances\mip\fuel\N14-C_DV100-C_SV25_F5_7_No_1.lp
Reading time = 0.02 seconds
(null): 1149 rows, 512 columns, 4917 nonzeros
Optimize a model with 1149 rows, 512 columns and 4917 nonzeros
Model has 2744 quadratic constraints
Coefficient statistics:
  Matrix range    [1e+00, 1e+06]
  Objective range [4e+04, 1e+07]
  Bounds range    [1e+00, 1e+06]
  RHS range       [1e+00, 1e+06]
Presolve removed 138 rows and 62 columns
Presolve time: 0.16s
Presolved: 5137 rows, 2513 columns, 28070 nonzeros
Variable types: 2063 continuous, 450 integer (392 binary)
Found heuristic solution: objective 1.351509e+08

Root relaxation: objective 2.274589e+06, 247 iterations, 0.02 seconds

    Nodes    |    Current Node    |     Objective Bounds      |     Work
 Expl Unexpl |  Obj  Depth IntInf | Incumbent    BestBd   Gap | It/Node Time

     0     0 2274589.06    0   70 1.3515e+08 2274589.06  98.3%     -    0s
H    0     0                    9.401970e+07 2274589.06  97.6%     -    0s
     0     0 2743393.52    0   80 9.4020e+07 2743393.52  97.1%     -    0s
     0     0 3373107.93    0   89 9.4020e+07 3373107.93  96.4%     -    0s
     0     0 3862874.91    0   73 9.4020e+07 3862874.91  95.9%     -    0s
     0     0 4354798.70    0   81 9.4020e+07 4354798.70  95.4%     -    0s
     0     0 5084138.55    0   69 9.4020e+07 5084138.55  94.6%     -    0s
     0     0 5144346.15    0   67 9.4020e+07 5144346.15  94.5%     -    0s
     0     0 5194692.31    0   67 9.4020e+07 5194692.31  94.5%     -    0s
H    0     0                    9.394690e+07 5194692.31  94.5%     -    0s
H    0     0                    7.337960e+07 5194692.31  92.9%     -    0s
     0     0 5194692.31    0   67 7.3380e+07 5194692.31  92.9%     -    0s
     0     0 5194692.31    0   67 7.3380e+07 5194692.31  92.9%     -    0s
     0     2 5194692.31    0   67 7.3380e+07 5194692.31  92.9%     -    0s
H   27    24                    6.304230e+07 6354308.10  89.9%  41.9    0s
H   38    33                    5.301760e+07 6354308.10  88.0%  38.4    0s
H  114    88                    5.301390e+07 6354308.10  88.0%  31.2    1s
H  371   241                    5.286120e+07 8536178.62  83.9%  25.9    1s
H  470   299                    5.279380e+07 1.2274e+07  76.8%  24.7    1s
H  534   342                    5.278330e+07 1.2274e+07  76.7%  25.9    1s
H  600   347                    4.277690e+07 1.2302e+07  71.2%  25.9    1s
* 1426   627              28    4.272340e+07 1.3936e+07  67.4%  27.5    4s
  1469   623 infeasible   26      4.2723e+07 1.3936e+07  67.4%  28.0    5s
H 1557   589                    4.272120e+07 1.3936e+07  67.4%  27.6    5s
H 2375   555                    4.268990e+07 1.8104e+07  57.6%  24.4    6s
H 2816   597                    4.265160e+07 2.2364e+07  47.6%  24.2    7s
H 3087   602                    4.260740e+07 2.2481e+07  47.2%  24.7    7s
  4030   667 infeasible   31      4.2607e+07 2.2788e+07  46.5%  24.6   10s
  7132   431     cutoff   42      4.2607e+07 3.2366e+07  24.0%  24.1   15s

Cutting planes:
  Learned: 3
  Gomory: 1
  Cover: 5
  Implied bound: 2
  Clique: 9
  MIR: 3
  GUB cover: 10

Explored 8428 nodes (194578 simplex iterations) in 16.19 seconds
Thread count was 4 (of 4 available processors)

Optimal solution found (tolerance 1.00e-04)
Best objective 4.260740000000e+07, best bound 4.260740000000e+07, gap 0.0%
k_c1	30000.0
k_c10	150000.0
k_c11	90000.0
k_c12	70000.0
k_c13	110000.0
k_c14	1000000.0
k_c2	50000.0
k_c3	90000.0
k_c4	790000.0
k_c5	130000.0
k_c6	50000.0
k_c7	870000.0
k_c8	190000.0
k_c9	120000.0
k_dN	-0.0
o_1	-0.0
o_10	-0.0
o_11	-0.0
o_12	-0.0
o_13	0.0
o_14	0.0
o_2	0.0
o_3	0.0
o_4	0.0
o_5	0.0
o_6	0.0
o_7	0.0
o_8	-0.0
o_9	0.0
p_1	0.0
p_10	-0.0
p_11	-0.0
p_12	-0.0
p_13	-0.0
p_14	-0.0
p_2	-0.0
p_3	-0.0
p_4	-0.0
p_5	-0.0
p_6	0.0
p_7	0.0
p_8	-0.0
p_9	-0.0
phi_c1	16524.0
phi_c10	33215.0
phi_c11	38788.0
phi_c12	28807.0
phi_c13	12731.0
phi_c14	41537.0
phi_c2	19401.0
phi_c3	19133.0
phi_c4	34280.0
phi_c5	25957.0
phi_c6	2676.0
phi_c7	45511.0
phi_c8	39276.0
phi_c9	25710.0
phi_d0	50000.0
phi_dN	-0.0
tauD_c1	700000.0
tauD_c10	250000.0
tauD_c11	300000.0
tauD_c12	500000.0
tauD_c13	209775.0
tauD_c14	450000.0
tauD_c2	709325.0
tauD_c3	650000.0
tauD_c4	523725.0
tauD_c5	400000.0
tauD_c6	800000.0
tauD_c7	100000.0
tauD_c8	40075.0
tauD_c9	615750.0
tauD_d0	-0.0
tauD_dN	1000000.0
tauS_c1	858250.0
tauS_c10	877500.0
tauS_c11	878100.0
tauS_c12	863600.0
tauS_c13	872425.0
tauS_c14	111025.0
tauS_c2	847500.0
tauS_c3	853425.0
tauS_c4	880475.0
tauS_c5	867974.0
tauS_c6	89975.0
tauS_c7	95150.0
tauS_c8	879925.0
tauS_c9	849550.0
tauS_d0	-0.0
tauS_dN	203750.0
x_c10_c5	1.0
x_c11_c12	1.0
x_c12_c1	1.0
x_c13_dN	1.0
x_c14_c4	1.0
x_c1_dN	1.0
x_c2_dN	1.0
x_c3_c6	1.0
x_c4_c9	1.0
x_c5_c3	1.0
x_c6_dN	1.0
x_c7_c13	1.0
x_c8_c10	1.0
x_c9_c2	1.0
x_d0_c11	1.0
x_d0_c14	1.0
x_d0_c7	1.0
x_d0_c8	1.0
